NAME : rnd13_20.tsp
TYPE : TSP
DIMENSION : 20
EDGE_WEIGHT_TYPE : EUC_2D
NODE_COORD_SECTION
1 421 236
2 204 998
3 139 185
4 294 620
5 243 988
6 470 353
7 112 558
8 371 167
9 55 0
10 552 117
11 507 78
12 663 137
13 172 631
14 153 898
15 717 311
16 867 21
17 534 862
18 731 24
19 472 44
20 945 282
